382,-6
1006,355
1036,350
972,195
820,-21
723,140
764,150
914,173
681,436
593,420
575,460
629,478
708,491
801,776
746,820
488,672
558,575
417,42
311,286
368,507
311,526
334,583
200,651
168,572
653,229
681,196
1191,406
570,64
453,480
622,397
463,248
326,350
254,267
871,32
841,325
778,336
841,487
769,420
